35nstance num 

--max height = 40
--width =15
--X coordinates [13, 9, 0, 11, 6, 10, 5, 10, 0, 12, 12, 6, 8, 11, 0, 6, 9, 7, 6, 0, 6, 2, 6, 0, 0]
--Y coordinates [29, 27, 30, 0, 0, 20, 26, 14, 26, 21, 20, 9, 27, 8, 6, 25, 29, 30, 27, 15, 22, 0, 14, 12, 0]
--X dimensions [2, 3, 7, 4, 5, 2, 1, 1, 5, 3, 3, 5, 1, 4, 2, 4, 4, 2, 2, 2, 4, 4, 4, 2, 2]
--Y dimensions [11, 2, 10, 8, 9, 7, 4, 6, 4, 8, 1, 5, 3, 12, 6, 2, 11, 10, 3, 11, 3, 26, 8, 3, 6]
% time elapsed: 24.22 s
----------
%%%mzn-stat: initTime=0.00055
%%%mzn-stat: solveTime=24.0817
%%%mzn-stat: solutions=1
%%%mzn-stat: variables=51
%%%mzn-stat: propagators=30
%%%mzn-stat: propagations=12662528
%%%mzn-stat: nodes=3560990
%%%mzn-stat: failures=1780418
%%%mzn-stat: restarts=0
%%%mzn-stat: peakDepth=83
%%%mzn-stat-end
